
Log started (V11.0.0) Fri May 16 06:48:17 2008

Tried aggregator 1 time.
Reduced MIP has 240 rows, 8001 columns, and 16040 nonzeros.
Presolve time =    0.06 sec.
Clique table members: 200.
MIP emphasis: balance optimality and feasibility.
MIP search method: dynamic search.
Parallel mode: none, using 1 thread.
Root relaxation solution time =    0.36 sec.

        Nodes                                         Cuts/
   Node  Left     Objective  IInf  Best Integer     Best Node    ItCnt     Gap

*     0+    0                        17357.0000      117.9734      650   99.32%
*     0+    0                          176.0000      117.9734      650   32.97%
      0     0      118.6810    77      176.0000      Fract: 5      691   32.57%
*     0+    0                          170.0000      118.6810      691   30.19%
      0     0      123.4018    79      170.0000      Cuts: 29     1157   27.41%
*     0+    0                          162.0000      123.4018     1157   23.83%
      0     0      123.4055    83      162.0000      Cuts: 12     1223   23.82%
*     0+    0                          154.0000      123.4055     1223   19.87%
      0     0      123.4800    91      154.0000      Cuts: 10     1245   19.82%
*     0+    0                          153.0000      123.4800     1245   19.29%
      0     0      123.6340    87      153.0000       Cuts: 6     1266   19.19%
*     0+    0                          151.0000      123.6340     1266   18.12%
      0     0      123.6340    92      151.0000       Cuts: 4     1281   18.12%
      0     0      123.7788    95      151.0000       Cuts: 9     1329   18.03%
*     0+    0                          146.0000      123.7788     1329   15.22%
      0     0      123.7788   101      146.0000       Cuts: 7     1347   15.22%
*     0+    0                          145.0000      123.7788     1347   14.64%
*     0+    0                          144.0000      123.7788     1347   14.04%
*     0+    0                          133.0000      123.7788     1347    6.93%
      0     2      123.7788   101      133.0000      123.7788     1347    6.93%
    100    86      125.0000    48      133.0000      123.9365     5966    6.81%
*   120+  102                          132.0000      123.9365     6261    6.11%
    200   164      126.0000    41      132.0000      123.9365     8661    6.11%
    300   238      127.0000    43      132.0000      123.9365    11255    6.11%
    400   299      127.3853    39      132.0000      123.9365    13721    6.11%
*   476+  230                          131.0000      127.5517    16784    2.63%
*   476+  153                          130.0000      127.6971    16830    1.77%
    500   161      129.0000    32      130.0000      128.0000    17230    1.54%
    600   186      129.0000    34      130.0000      128.0000    19399    1.54%
    700   199    infeasible            130.0000      128.0000    22468    1.54%
    800   272      129.0000    46      130.0000      128.0000    27253    1.54%
*   876+    6                          129.0000      128.0000    31794    0.78%

Clique cuts applied:  1
Cover cuts applied:  53
Implied bound cuts applied:  4
Mixed integer rounding cuts applied:  13
Gomory fractional cuts applied:  3

Solution pool: 15 solutions saved.

MIP - Integer optimal solution:  Objective = 1.2900000000e+002
Solution time =   43.83 sec.  Iterations = 32132  Nodes = 882


Incumbent solution
Variable Name           Solution Value
Cmax                        129.000000
X_1_20                        1.000000
X_2_27                        1.000000
X_3_33                        1.000000
X_4_35                        1.000000
X_5_37                        1.000000
X_6_6                         1.000000
X_7_1                         1.000000
X_8_4                         1.000000
X_9_35                        1.000000
X_10_27                       1.000000
X_11_6                        1.000000
X_12_33                       1.000000
X_13_31                       1.000000
X_14_14                       1.000000
X_15_14                       1.000000
X_16_6                        1.000000
X_17_33                       1.000000
X_18_32                       1.000000
X_19_23                       1.000000
X_20_6                        1.000000
X_21_27                       1.000000
X_22_4                        1.000000
X_23_6                        1.000000
X_24_14                       1.000000
X_25_21                       1.000000
X_26_14                       1.000000
X_27_6                        1.000000
X_28_33                       1.000000
X_29_23                       1.000000
X_30_23                       1.000000
X_31_24                       1.000000
X_32_40                       1.000000
X_33_33                       1.000000
X_34_5                        1.000000
X_35_8                        1.000000
X_36_2                        1.000000
X_37_22                       1.000000
X_38_4                        1.000000
X_39_6                        1.000000
X_40_35                       1.000000
X_41_32                       1.000000
X_42_15                       1.000000
X_43_35                       1.000000
X_44_33                       1.000000
X_45_25                       1.000000
X_46_33                       1.000000
X_47_33                       1.000000
X_48_14                       1.000000
X_49_6                        1.000000
X_50_35                       1.000000
X_51_33                       1.000000
X_52_33                       1.000000
X_53_28                       1.000000
X_54_3                        1.000000
X_55_33                       1.000000
X_56_33                       1.000000
X_57_2                        1.000000
X_58_27                       1.000000
X_59_5                        1.000000
X_60_9                        1.000000
X_61_33                       1.000000
X_62_6                        1.000000
X_63_33                       1.000000
X_64_35                       1.000000
X_65_2                        1.000000
X_66_16                       1.000000
X_67_2                        1.000000
X_68_19                       1.000000
X_69_7                        1.000000
X_70_27                       1.000000
X_71_14                       1.000000
X_72_4                        1.000000
X_73_33                       1.000000
X_74_2                        1.000000
X_75_36                       1.000000
X_76_33                       1.000000
X_77_35                       1.000000
X_78_9                        1.000000
X_79_13                       1.000000
X_80_6                        1.000000
X_81_27                       1.000000
X_82_33                       1.000000
X_83_12                       1.000000
X_84_6                        1.000000
X_85_27                       1.000000
X_86_5                        1.000000
X_87_16                       1.000000
X_88_4                        1.000000
X_89_18                       1.000000
X_90_33                       1.000000
X_91_4                        1.000000
X_92_33                       1.000000
X_93_32                       1.000000
X_94_39                       1.000000
X_95_33                       1.000000
X_96_33                       1.000000
X_97_35                       1.000000
X_98_26                       1.000000
X_99_27                       1.000000
X_100_4                       1.000000
X_101_33                      1.000000
X_102_6                       1.000000
X_103_35                      1.000000
X_104_34                      1.000000
X_105_27                      1.000000
X_106_30                      1.000000
X_107_33                      1.000000
X_108_38                      1.000000
X_109_12                      1.000000
X_110_27                      1.000000
X_111_4                       1.000000
X_112_35                      1.000000
X_113_11                      1.000000
X_114_27                      1.000000
X_115_29                      1.000000
X_116_27                      1.000000
X_117_11                      1.000000
X_118_25                      1.000000
X_119_5                       1.000000
X_120_6                       1.000000
X_121_11                      1.000000
X_122_6                       1.000000
X_123_6                       1.000000
X_124_5                       1.000000
X_125_33                      1.000000
X_126_35                      1.000000
X_127_32                      1.000000
X_128_6                       1.000000
X_129_33                      1.000000
X_130_32                      1.000000
X_131_35                      1.000000
X_132_6                       1.000000
X_133_6                       1.000000
X_134_37                      1.000000
X_135_21                      1.000000
X_136_2                       1.000000
X_137_17                      1.000000
X_138_33                      1.000000
X_139_21                      1.000000
X_140_33                      1.000000
X_141_33                      1.000000
X_142_4                       1.000000
X_143_38                      1.000000
X_144_33                      1.000000
X_145_26                      1.000000
X_146_13                      1.000000
X_147_5                       1.000000
X_148_33                      1.000000
X_149_28                      1.000000
X_150_35                      1.000000
X_151_6                       1.000000
X_152_6                       1.000000
X_153_33                      1.000000
X_154_30                      1.000000
X_155_33                      1.000000
X_156_6                       1.000000
X_157_11                      1.000000
X_158_33                      1.000000
X_159_6                       1.000000
X_160_32                      1.000000
X_161_18                      1.000000
X_162_33                      1.000000
X_163_25                      1.000000
X_164_35                      1.000000
X_165_30                      1.000000
X_166_10                      1.000000
X_167_6                       1.000000
X_168_27                      1.000000
X_169_27                      1.000000
X_170_6                       1.000000
X_171_6                       1.000000
X_172_9                       1.000000
X_173_33                      1.000000
X_174_27                      1.000000
X_175_5                       1.000000
X_176_33                      1.000000
X_177_2                       1.000000
X_178_33                      1.000000
X_179_33                      1.000000
X_180_4                       1.000000
X_181_6                       1.000000
X_182_33                      1.000000
X_183_33                      1.000000
X_184_6                       1.000000
X_185_27                      1.000000
X_186_15                      1.000000
X_187_38                      1.000000
X_188_22                      1.000000
X_189_14                      1.000000
X_190_33                      1.000000
X_191_14                      1.000000
X_192_11                      1.000000
X_193_7                       1.000000
X_194_21                      1.000000
X_195_6                       1.000000
X_196_27                      1.000000
X_197_36                      1.000000
X_198_33                      1.000000
X_199_35                      1.000000
X_200_6                       1.000000
All other variables in the range 1-8001 are 0.
